c WARNING: for repeatability, setting FPU to use double precision
d VARIABLES            200964       
d CONSTRAINTS          918879       
c ============================[ Problem Statistics ]=============================
c |                                                                             |
c |  Number of variables:        200964                                         |
c |  Number of clauses:          918879                                         |
c |  Parse time:                   0.16 s                                       |
c |                                                                             |
c ============================[ Search Statistics ]==============================
c | Conflicts |          ORIGINAL         |          LEARNT          | Progress |
c |           |    Vars  Clauses Literals |    Limit  Clauses Lit/Cl |          |
c ===============================================================================
c |       100 |  177418   851791  2059562 |   312323      100     10 | 11.717 % |
c |       250 |  177418   851791  2059562 |   343555      250     34 | 11.717 % |
c |       475 |  177418   851791  2059562 |   377911      475     71 | 11.717 % |
c |       812 |  177418   851791  2059562 |   415702      812     61 | 11.717 % |
c |      1318 |  177418   851791  2059562 |   457272     1318     61 | 11.717 % |
c |      2077 |  177418   851791  2059562 |   502999     2077     68 | 11.717 % |
c |      3216 |  177418   851791  2059562 |   553299     3216     66 | 11.717 % |
c |      4924 |  177418   851791  2059562 |   608629     4924     74 | 11.717 % |
c |      7486 |  177418   851791  2059562 |   669492     7486     84 | 11.717 % |
c |     11330 |  177418   851791  2059562 |   736442    11330     80 | 11.717 % |
c |     17096 |  177418   851791  2059562 |   810086    17096     84 | 11.717 % |
c |     25745 |  177418   851791  2059562 |   891095    25745    109 | 11.717 % |
c |     38719 |  177418   851791  2059562 |   980204    38719    110 | 11.717 % |
c |     58180 |  177418   851791  2059562 |  1078224    58180    112 | 11.717 % |
c |     87372 |  177418   851791  2059562 |  1186047    87372    117 | 11.717 % |
c |    131161 |  177395   851677  2059288 |  1304652   131160    113 | 11.728 % |
c |    196845 |  177395   851677  2059288 |  1435117   196844    112 | 11.728 % |
c |    295371 |  177395   851677  2059288 |  1578629   295370    116 | 11.728 % |
c |    443160 |  177395   851677  2059288 |  1736492   443159    119 | 11.728 % |
c |    664843 |  177276   851118  2057946 |  1910141   664839    150 | 11.787 % |
c |    997368 |  177276   851083  2057862 |  2101155   997364    142 | 11.787 % |
c |   1496156 |  177272   851064  2057816 |  2311270  1496151    147 | 11.789 % |
c ===============================================================================
c restarts              : 3681
c conflicts             : 1899618        (1061 /sec)
c decisions             : 5050113        (0.00 % random) (2822 /sec)
c propagations          : 4803624407     (2683841 /sec)
c conflict literals     : 275823625      (34.47 % deleted)
d RESTARTS             3681
d FAILURES             1899618      
d NODES                5050113      
d BACKTRACKS           5050113      
d PROPAGATIONS         4803624407   
d NOGOODSIZE           145.20 
d MEMORY               1621.00 
d TIME                 1789.83 

s UNKNOWN
